
Gurobi 9.5.1 (linux64) logging started Tue 16 Aug 2022 08:28:06 PM MST

Set parameter LogFile to value "/home/local/ASUAD/kmajd1/NNRepLayer_v2/demos/walking_example/dynamic_constraint/repair_net/logs/opt_log_multi_20.log"
Gurobi Optimizer version 9.5.1 build v9.5.1rc2 (linux64)
Thread count: 48 physical cores, 96 logical processors, using up to 48 threads
Optimize a model with 15477 rows, 9832 columns and 118165 nonzeros
Model fingerprint: 0x1034ffe0
Model has 135 quadratic objective terms
Variable types: 5512 continuous, 4320 integer (4320 binary)
Coefficient statistics:
  Matrix range     [8e-04, 4e+01]
  Objective range  [3e-02, 3e+00]
  QObjective range [1e-01, 1e-01]
  Bounds range     [2e-04, 2e+02]
  RHS range        [2e-05, 3e+01]

Concurrent MIP optimizer: 3 concurrent instances (16 threads per instance)

Presolve removed 526 rows and 128 columns
Presolve time: 0.19s
Presolved: 14951 rows, 9704 columns, 117383 nonzeros
Presolved model has 135 quadratic objective terms
Variable types: 5384 continuous, 4320 integer (4320 binary)
Root relaxation presolve removed 4320 rows and 4320 columns
Root relaxation presolved: 10631 rows, 5384 columns, 104423 nonzeros
Root relaxation presolved model has 135 quadratic objective terms


Root relaxation: objective 2.518518e+01, 7863 iterations, 0.39 seconds (0.67 work units)

    Nodes    |    Current Node    |     Objective Bounds      |     Work
 Expl Unexpl |  Obj  Depth IntInf | Incumbent    BestBd   Gap | It/Node Time

     0     0      -    -    -              -   25.18518      -     -    0s
     0     0      -    -    -              -   25.18518      -     -    2s
     0     2      -    -    -              -   25.18518      -     -    7s
  1193  1256      -    -    -              -   25.18518      -     -   10s
  5358  5581      -    -    -              -   25.18518      -     -   15s
  8026  8248      -    -    -              -   25.18518      -     -   20s
 10079 10265      -    -    -              -   25.18518      -     -   25s
 10269 10269      -    -    -              -   25.18518      -     -   48s
 10270 10272      -    -    -       58.51570   25.18518  57.0%     -   54s
 10316 10317      -    -    -       58.51570   25.18518  57.0%     -   55s
 12561 11924      -    -    -       58.51570   25.18518  57.0%     -   63s
 13273 12448      -    -    -       58.51570   25.18518  57.0%     -   65s
 13646 12673      -    -    -       54.84498   25.18518  54.1%     -   74s
 14015 12983      -    -    -       54.84498   25.18518  54.1%     -   77s
 14231 12930      -    -    -       52.29805   25.18518  51.8%     -   97s
 14250 11938      -    -    -       49.55510   25.18518  49.2%     -  130s
 14481 10373      -    -    -       35.22399   25.18518  28.5%     -  167s

Instance 0 was solved

Explored 14497 nodes (828144 simplex iterations) in 167.22 seconds (327.58 work units)
Thread count was 16 (of 96 available processors)

Solution count 10: 33.2055 33.332 33.4717 ... 35.224 

Optimal solution found (tolerance 3.50e-01)
Best objective 3.320547336718e+01, best bound 2.518518324092e+01, gap 24.1535%
